g9 0 1 0 4 20170614 0 4 1 244	# problem hs087
 9 4 1 0 4	# vars, constraints, objectives, ranges, eqns
 4 0	# nonlinear constraints, objectives
 0 0	# network constraints: nonlinear, linear
 3 0 0	# nonlinear vars in constraints, objectives, both
 0 0 0 1	# linear network variables; functions; arith, flags
 0 0 0 0 0	# discrete variables: binary, integer, nonlinear (b,c,o)
 18 5	# nonzeros in Jacobian, gradients
 0 0	# max name lengths: constraints, variables
 0 0 0 0 0	# common exprs: b,c,o,c1,o1
b
0 340 420
0 340 420
0 0 0.5236
0 -1000 1000
0 0 300
0 0 100
0 0 100
0 0 100
0 0 800
x4
0 419.5
1 340.5
2 0.5
3 198.175
r
4 300
4 0
4 0
4 -200
C0
o0
o2
n0.007629045301270999
o2
o2
v0
v1
o46
o1
n1.48477
v2
o2
n-0.0006565005618922932
o5
v0
n2
C1
o0
o2
n0.007629045301270999
o2
o2
v0
v1
o46
o0
n1.48477
v2
o2
n-0.0006565005618922932
o5
v1
n2
C2
o0
o2
n0.007629045301270999
o2
o2
v0
v1
o41
o0
n1.48477
v2
o2
n-0.006895840829735231
o5
v1
n2
C3
o0
o2
n-0.007629045301270999
o2
o2
v0
v1
o41
o1
n1.48477
v2
o2
n0.006895840829735231
o5
v0
n2
O0 0
n0
k8
4
8
12
13
14
15
16
17
J0 5
0 0
1 0
2 0
4 1
5 1
J1 6
0 0
1 0
2 0
6 1
7 1
8 1
J2 4
0 0
1 0
2 0
3 1
J3 3
0 0
1 0
2 0
G0 5
4 30
5 31
6 28
7 29
8 30
